benchmarks/clingcon3_benchmarks/minizinc/multi-knapsack/mknapsack_global.mzn._mknap1-6.dzn.mzn.fzn
array [1..49] of int: X_INTRODUCED_216 = [1,-40,-91,-10,-30,-160,-20,-3,-12,-3,-18,-9,-25,-1,-1,-10,-280,-10,-8,-1,-1,-49,-8,-21,-6,-1,-5,-10,-8,-2,-1,-10,-42,-6,-4,-8,-10,-1,-40,-86,-11,-120,-8,-3,-32,-28,-13,-2,-4];
array [1..50] of int: X_INTRODUCED_219 = [-560,-1125,-300,-620,-2100,-431,-68,-328,-47,-122,-322,-196,-41,-25,-425,-4260,-416,-115,-82,-22,-631,-132,-420,-86,-42,-103,-215,-81,-91,-26,-49,-420,-316,-72,-71,-49,-108,-116,-90,-738,-1811,-430,-3060,-215,-58,-296,-620,-418,-47,-81];
array [1..45] of int: X_INTRODUCED_271 = [1,-16,-92,-41,-16,-150,-23,-4,-18,-6,-12,-8,-2,-1,-200,-20,-6,-2,-1,-70,-9,-22,-4,-1,-5,-10,-6,-4,-4,-12,-8,-4,-3,-10,-6,-28,-93,-9,-30,-22,-36,-45,-13,-2,-2];
array [1..43] of int: X_INTRODUCED_321 = [1,-38,-39,-32,-71,-80,-26,-5,-40,-8,-12,-30,-15,-1,-23,-100,-20,-3,-40,-6,-8,-6,-4,-22,-4,-6,-1,-5,-14,-8,-2,-8,-20,-6,-12,-6,-80,-13,-6,-22,-14,-1,-2];
array [1..45] of int: X_INTRODUCED_372 = [1,-8,-71,-30,-60,-200,-18,-6,-30,-4,-8,-31,-6,-3,-18,-60,-21,-4,-2,-32,-15,-31,-2,-2,-7,-8,-2,-8,-2,-8,-6,-7,-1,-20,-8,-14,-20,-2,-40,-6,-1,-14,-20,-12,-1];
array [1..44] of int: X_INTRODUCED_414 = [1,-38,-52,-30,-42,-170,-9,-7,-20,-3,-21,-4,-1,-2,-14,-310,-8,-4,-6,-1,-18,-15,-38,-10,-4,-8,-6,-3,-10,-6,-1,-3,-3,-5,-4,-30,-12,-16,-18,-3,-16,-22,-30,-4];
var 0..1: X_INTRODUCED_0;
var 0..1: X_INTRODUCED_1;
var 0..1: X_INTRODUCED_2;
var 0..1: X_INTRODUCED_3;
var 0..1: X_INTRODUCED_4;
var 0..1: X_INTRODUCED_5;
var 0..1: X_INTRODUCED_6;
var 0..1: X_INTRODUCED_7;
var 0..1: X_INTRODUCED_8;
var 0..1: X_INTRODUCED_9;
var 0..1: X_INTRODUCED_10;
var 0..1: X_INTRODUCED_11;
var 0..1: X_INTRODUCED_12;
var 0..1: X_INTRODUCED_13;
var 0..1: X_INTRODUCED_14;
var 0..1: X_INTRODUCED_15;
var 0..1: X_INTRODUCED_16;
var 0..1: X_INTRODUCED_17;
var 0..1: X_INTRODUCED_18;
var 0..1: X_INTRODUCED_19;
var 0..1: X_INTRODUCED_20;
var 0..1: X_INTRODUCED_21;
var 0..1: X_INTRODUCED_22;
var 0..1: X_INTRODUCED_23;
var 0..1: X_INTRODUCED_24;
var 0..1: X_INTRODUCED_25;
var 0..1: X_INTRODUCED_26;
var 0..1: X_INTRODUCED_27;
var 0..1: X_INTRODUCED_28;
var 0..1: X_INTRODUCED_29;
var 0..1: X_INTRODUCED_30;
var 0..1: X_INTRODUCED_31;
var 0..1: X_INTRODUCED_32;
var 0..1: X_INTRODUCED_33;
var 0..1: X_INTRODUCED_34;
var 0..1: X_INTRODUCED_35;
var 0..1: X_INTRODUCED_36;
var 0..1: X_INTRODUCED_37;
var 0..1: X_INTRODUCED_38;
var 0..1: X_INTRODUCED_39;
var 0..1: X_INTRODUCED_40;
var 0..1: X_INTRODUCED_41;
var 0..1: X_INTRODUCED_42;
var 0..1: X_INTRODUCED_43;
var 0..1: X_INTRODUCED_44;
var 0..1: X_INTRODUCED_45;
var 0..1: X_INTRODUCED_46;
var 0..1: X_INTRODUCED_47;
var 0..1: X_INTRODUCED_48;
var 0..1: X_INTRODUCED_49;
var 0..800: X_INTRODUCED_50:: is_defined_var;
var 0..650: X_INTRODUCED_51:: is_defined_var;
var 0..550: X_INTRODUCED_52:: is_defined_var;
var 0..550: X_INTRODUCED_53:: is_defined_var;
var 0..650: X_INTRODUCED_54:: is_defined_var;
var 0..22497: objective:: is_defined_var;
array [1..50] of var int: x:: output_array([1..50]) = [X_INTRODUCED_0,X_INTRODUCED_1,X_INTRODUCED_2,X_INTRODUCED_3,X_INTRODUCED_4,X_INTRODUCED_5,X_INTRODUCED_6,X_INTRODUCED_7,X_INTRODUCED_8,X_INTRODUCED_9,X_INTRODUCED_10,X_INTRODUCED_11,X_INTRODUCED_12,X_INTRODUCED_13,X_INTRODUCED_14,X_INTRODUCED_15,X_INTRODUCED_16,X_INTRODUCED_17,X_INTRODUCED_18,X_INTRODUCED_19,X_INTRODUCED_20,X_INTRODUCED_21,X_INTRODUCED_22,X_INTRODUCED_23,X_INTRODUCED_24,X_INTRODUCED_25,X_INTRODUCED_26,X_INTRODUCED_27,X_INTRODUCED_28,X_INTRODUCED_29,X_INTRODUCED_30,X_INTRODUCED_31,X_INTRODUCED_32,X_INTRODUCED_33,X_INTRODUCED_34,X_INTRODUCED_35,X_INTRODUCED_36,X_INTRODUCED_37,X_INTRODUCED_38,X_INTRODUCED_39,X_INTRODUCED_40,X_INTRODUCED_41,X_INTRODUCED_42,X_INTRODUCED_43,X_INTRODUCED_44,X_INTRODUCED_45,X_INTRODUCED_46,X_INTRODUCED_47,X_INTRODUCED_48,X_INTRODUCED_49];
array [1..49] of var int: X_INTRODUCED_215 ::var_is_introduced  = [X_INTRODUCED_50,X_INTRODUCED_0,X_INTRODUCED_1,X_INTRODUCED_2,X_INTRODUCED_3,X_INTRODUCED_4,X_INTRODUCED_5,X_INTRODUCED_6,X_INTRODUCED_7,X_INTRODUCED_8,X_INTRODUCED_9,X_INTRODUCED_10,X_INTRODUCED_11,X_INTRODUCED_12,X_INTRODUCED_13,X_INTRODUCED_14,X_INTRODUCED_15,X_INTRODUCED_16,X_INTRODUCED_17,X_INTRODUCED_18,X_INTRODUCED_19,X_INTRODUCED_20,X_INTRODUCED_21,X_INTRODUCED_22,X_INTRODUCED_23,X_INTRODUCED_24,X_INTRODUCED_25,X_INTRODUCED_26,X_INTRODUCED_27,X_INTRODUCED_28,X_INTRODUCED_29,X_INTRODUCED_31,X_INTRODUCED_32,X_INTRODUCED_33,X_INTRODUCED_34,X_INTRODUCED_35,X_INTRODUCED_37,X_INTRODUCED_38,X_INTRODUCED_39,X_INTRODUCED_40,X_INTRODUCED_41,X_INTRODUCED_42,X_INTRODUCED_43,X_INTRODUCED_44,X_INTRODUCED_45,X_INTRODUCED_46,X_INTRODUCED_47,X_INTRODUCED_48,X_INTRODUCED_49];
array [1..50] of var int: X_INTRODUCED_218 ::var_is_introduced  = [X_INTRODUCED_0,X_INTRODUCED_1,X_INTRODUCED_2,X_INTRODUCED_3,X_INTRODUCED_4,X_INTRODUCED_5,X_INTRODUCED_6,X_INTRODUCED_7,X_INTRODUCED_8,X_INTRODUCED_9,X_INTRODUCED_10,X_INTRODUCED_11,X_INTRODUCED_12,X_INTRODUCED_13,X_INTRODUCED_14,X_INTRODUCED_15,X_INTRODUCED_16,X_INTRODUCED_17,X_INTRODUCED_18,X_INTRODUCED_19,X_INTRODUCED_20,X_INTRODUCED_21,X_INTRODUCED_22,X_INTRODUCED_23,X_INTRODUCED_24,X_INTRODUCED_25,X_INTRODUCED_26,X_INTRODUCED_27,X_INTRODUCED_28,X_INTRODUCED_29,X_INTRODUCED_30,X_INTRODUCED_31,X_INTRODUCED_32,X_INTRODUCED_33,X_INTRODUCED_34,X_INTRODUCED_35,X_INTRODUCED_36,X_INTRODUCED_37,X_INTRODUCED_38,X_INTRODUCED_39,X_INTRODUCED_40,X_INTRODUCED_41,X_INTRODUCED_42,X_INTRODUCED_43,X_INTRODUCED_44,X_INTRODUCED_45,X_INTRODUCED_46,X_INTRODUCED_47,X_INTRODUCED_48,X_INTRODUCED_49];
array [1..45] of var int: X_INTRODUCED_270 ::var_is_introduced  = [X_INTRODUCED_51,X_INTRODUCED_0,X_INTRODUCED_1,X_INTRODUCED_2,X_INTRODUCED_3,X_INTRODUCED_4,X_INTRODUCED_5,X_INTRODUCED_6,X_INTRODUCED_7,X_INTRODUCED_8,X_INTRODUCED_10,X_INTRODUCED_11,X_INTRODUCED_12,X_INTRODUCED_13,X_INTRODUCED_15,X_INTRODUCED_16,X_INTRODUCED_17,X_INTRODUCED_18,X_INTRODUCED_19,X_INTRODUCED_20,X_INTRODUCED_21,X_INTRODUCED_22,X_INTRODUCED_23,X_INTRODUCED_24,X_INTRODUCED_25,X_INTRODUCED_26,X_INTRODUCED_27,X_INTRODUCED_28,X_INTRODUCED_30,X_INTRODUCED_31,X_INTRODUCED_32,X_INTRODUCED_33,X_INTRODUCED_34,X_INTRODUCED_36,X_INTRODUCED_38,X_INTRODUCED_39,X_INTRODUCED_40,X_INTRODUCED_41,X_INTRODUCED_42,X_INTRODUCED_43,X_INTRODUCED_45,X_INTRODUCED_46,X_INTRODUCED_47,X_INTRODUCED_48,X_INTRODUCED_49];
array [1..43] of var int: X_INTRODUCED_320 ::var_is_introduced  = [X_INTRODUCED_52,X_INTRODUCED_0,X_INTRODUCED_1,X_INTRODUCED_2,X_INTRODUCED_3,X_INTRODUCED_4,X_INTRODUCED_5,X_INTRODUCED_6,X_INTRODUCED_7,X_INTRODUCED_8,X_INTRODUCED_9,X_INTRODUCED_10,X_INTRODUCED_11,X_INTRODUCED_13,X_INTRODUCED_14,X_INTRODUCED_15,X_INTRODUCED_17,X_INTRODUCED_18,X_INTRODUCED_20,X_INTRODUCED_21,X_INTRODUCED_22,X_INTRODUCED_24,X_INTRODUCED_25,X_INTRODUCED_26,X_INTRODUCED_27,X_INTRODUCED_28,X_INTRODUCED_29,X_INTRODUCED_30,X_INTRODUCED_31,X_INTRODUCED_32,X_INTRODUCED_33,X_INTRODUCED_34,X_INTRODUCED_36,X_INTRODUCED_39,X_INTRODUCED_40,X_INTRODUCED_41,X_INTRODUCED_42,X_INTRODUCED_43,X_INTRODUCED_44,X_INTRODUCED_45,X_INTRODUCED_46,X_INTRODUCED_48,X_INTRODUCED_49];
array [1..45] of var int: X_INTRODUCED_371 ::var_is_introduced  = [X_INTRODUCED_53,X_INTRODUCED_0,X_INTRODUCED_1,X_INTRODUCED_2,X_INTRODUCED_3,X_INTRODUCED_4,X_INTRODUCED_5,X_INTRODUCED_6,X_INTRODUCED_7,X_INTRODUCED_8,X_INTRODUCED_9,X_INTRODUCED_10,X_INTRODUCED_11,X_INTRODUCED_12,X_INTRODUCED_14,X_INTRODUCED_15,X_INTRODUCED_16,X_INTRODUCED_17,X_INTRODUCED_19,X_INTRODUCED_20,X_INTRODUCED_21,X_INTRODUCED_22,X_INTRODUCED_23,X_INTRODUCED_24,X_INTRODUCED_25,X_INTRODUCED_26,X_INTRODUCED_27,X_INTRODUCED_28,X_INTRODUCED_30,X_INTRODUCED_31,X_INTRODUCED_32,X_INTRODUCED_33,X_INTRODUCED_34,X_INTRODUCED_37,X_INTRODUCED_38,X_INTRODUCED_39,X_INTRODUCED_40,X_INTRODUCED_41,X_INTRODUCED_42,X_INTRODUCED_43,X_INTRODUCED_44,X_INTRODUCED_45,X_INTRODUCED_46,X_INTRODUCED_47,X_INTRODUCED_49];
array [1..44] of var int: X_INTRODUCED_413 ::var_is_introduced  = [X_INTRODUCED_54,X_INTRODUCED_0,X_INTRODUCED_1,X_INTRODUCED_2,X_INTRODUCED_3,X_INTRODUCED_4,X_INTRODUCED_5,X_INTRODUCED_6,X_INTRODUCED_7,X_INTRODUCED_9,X_INTRODUCED_10,X_INTRODUCED_11,X_INTRODUCED_12,X_INTRODUCED_13,X_INTRODUCED_14,X_INTRODUCED_15,X_INTRODUCED_16,X_INTRODUCED_17,X_INTRODUCED_18,X_INTRODUCED_19,X_INTRODUCED_20,X_INTRODUCED_21,X_INTRODUCED_22,X_INTRODUCED_23,X_INTRODUCED_24,X_INTRODUCED_25,X_INTRODUCED_26,X_INTRODUCED_29,X_INTRODUCED_31,X_INTRODUCED_32,X_INTRODUCED_33,X_INTRODUCED_34,X_INTRODUCED_36,X_INTRODUCED_37,X_INTRODUCED_38,X_INTRODUCED_40,X_INTRODUCED_41,X_INTRODUCED_42,X_INTRODUCED_43,X_INTRODUCED_44,X_INTRODUCED_45,X_INTRODUCED_46,X_INTRODUCED_47,X_INTRODUCED_48];
constraint int_lin_eq(X_INTRODUCED_216,X_INTRODUCED_215,0):: defines_var(X_INTRODUCED_50);
constraint int_lin_eq(X_INTRODUCED_219,X_INTRODUCED_218,-16537);
constraint int_lin_eq(X_INTRODUCED_271,X_INTRODUCED_270,0):: defines_var(X_INTRODUCED_51);
constraint int_lin_eq(X_INTRODUCED_321,X_INTRODUCED_320,0):: defines_var(X_INTRODUCED_52);
constraint int_lin_eq(X_INTRODUCED_372,X_INTRODUCED_371,0):: defines_var(X_INTRODUCED_53);
constraint int_lin_eq(X_INTRODUCED_414,X_INTRODUCED_413,0):: defines_var(X_INTRODUCED_54);
constraint int_lin_eq([560,1125,300,620,2100,431,68,328,47,122,322,196,41,25,425,4260,416,115,82,22,631,132,420,86,42,103,215,81,91,26,49,420,316,72,71,49,108,116,90,738,1811,430,3060,215,58,296,620,418,47,81,-1],[X_INTRODUCED_0,X_INTRODUCED_1,X_INTRODUCED_2,X_INTRODUCED_3,X_INTRODUCED_4,X_INTRODUCED_5,X_INTRODUCED_6,X_INTRODUCED_7,X_INTRODUCED_8,X_INTRODUCED_9,X_INTRODUCED_10,X_INTRODUCED_11,X_INTRODUCED_12,X_INTRODUCED_13,X_INTRODUCED_14,X_INTRODUCED_15,X_INTRODUCED_16,X_INTRODUCED_17,X_INTRODUCED_18,X_INTRODUCED_19,X_INTRODUCED_20,X_INTRODUCED_21,X_INTRODUCED_22,X_INTRODUCED_23,X_INTRODUCED_24,X_INTRODUCED_25,X_INTRODUCED_26,X_INTRODUCED_27,X_INTRODUCED_28,X_INTRODUCED_29,X_INTRODUCED_30,X_INTRODUCED_31,X_INTRODUCED_32,X_INTRODUCED_33,X_INTRODUCED_34,X_INTRODUCED_35,X_INTRODUCED_36,X_INTRODUCED_37,X_INTRODUCED_38,X_INTRODUCED_39,X_INTRODUCED_40,X_INTRODUCED_41,X_INTRODUCED_42,X_INTRODUCED_43,X_INTRODUCED_44,X_INTRODUCED_45,X_INTRODUCED_46,X_INTRODUCED_47,X_INTRODUCED_48,X_INTRODUCED_49,objective],0):: defines_var(objective);
solve :: int_search(x,input_order,indomain_max,complete) maximize objective;
